8 10 7 -1 -1 2 -1 3 8 -1 
7 1 -1 7 7 4 -1 10 -1 -1 
8 4 1 7 5 2 6 7 2 -1 
10 4 2 9 1 5 10 3 3 -1 
3 1 5 9 10 7 8 1 5 -1 
2 3 10 4 3 7 8 -1 6 -1 
6 4 4 1 2 8 2 4 9 -1 
0 1 4 8 10 6 9 1 10 -1 
6 0 7 4 7 2 1 2 10 -1 
8 -1 5 8 5 8 8 5 9 -1 
7 -1 7 -1 4 7 -1 10 3 -1 
2 1 4 0 8 7 1 8 2 -1 
8 0 8 2 4 10 9 6 5 -1 
1 2 -1 4 9 3 7 -1 6 -1 
4 0 9 -1 -1 0 9 8 2 -1 
